\ENCODING=ISO-8859-1
\Problem name: IloCplex

Minimize
 obj: x13 + x14 + x15 + x16
Subject To
 c1:  x1 + x2  = 1
 c2:  x3 + x4  = 1
 c3:  x7 + x8  = 1
 c4:  x5 + x6  = 1
 c5:  x9 + x10  = 1
 c6:  x11 + x12  = 1
 c7:  x1 + x11 <= 1
 c8:  x3 + x9 <= 1
 c9:  x5 + x7 <= 1
 c10: x5 + x7 <= 1
 c11: x3 + x9 <= 1
 c12: x1 + x11 <= 1
 c13: x2 + x12 <= 1
 c14: x4 + x10 <= 1
 c15: x6 + x8 <= 1
 c16: x6 + x8 <= 1
 c17: x4 + x10 <= 1
 c18: x2 + x12 <= 1
 c19: 60 x1 <= 60
 c20: 60 x2 <= 30
 c21: 30 x3 <= 60
 c22: 30 x4 <= 30
 c23: 30 x7 <= 60
 c24: 30 x8 <= 30
 c25: 60 x5 <= 60
 c26: 60 x6 <= 30
 c27: 30 x9 <= 60
 c28: 30 x10 <= 30
 c29: 30 x11 <= 60
 c30: 30 x12 <= 30
 c31: x13 >= 0
 c32: x13 >= 0
 c33: x14 >= 0
 c34: x14 >= 0
 c35: - x3 + x7 + x14 >= 0
 c36: x3 - x7 + x14 >= 0
 c37: x3 - x7 + x14 >= 0
 c38: - x3 + x7 + x14 >= 0
 c39: x14 >= 0
 c40: x14 >= 0
 c41: x15 >= 0
 c42: x15 >= 0
 c43: x16 >= 0
 c44: x16 >= 0
 c45: - x9 + x11 + x16 >= 0
 c46: x9 - x11 + x16 >= 0
 c47: x9 - x11 + x16 >= 0
 c48: - x9 + x11 + x16 >= 0
 c49: x16 >= 0
 c50: x16 >= 0
 c51: x13 >= 0
 c52: x13 >= 0
 c53: x14 >= 0
 c54: x14 >= 0
 c55: - x4 + x8 + x14 >= 0
 c56: x4 - x8 + x14 >= 0
 c57: x4 - x8 + x14 >= 0
 c58: - x4 + x8 + x14 >= 0
 c59: x14 >= 0
 c60: x14 >= 0
 c61: x15 >= 0
 c62: x15 >= 0
 c63: x16 >= 0
 c64: x16 >= 0
 c65: - x10 + x12 + x16 >= 0
 c66: x10 - x12 + x16 >= 0
 c67: x10 - x12 + x16 >= 0
 c68: - x10 + x12 + x16 >= 0
 c69: x16 >= 0
 c70: x16 >= 0
Bounds
 0 <= x1 <= 1
 0 <= x2 <= 1
 0 <= x3 <= 1
 0 <= x4 <= 1
 0 <= x5 <= 1
 0 <= x6 <= 1
 0 <= x7 <= 1
 0 <= x8 <= 1
 0 <= x9 <= 1
 0 <= x10 <= 1
 0 <= x11 <= 1
 0 <= x12 <= 1
 0 <= x13 <= 1
 0 <= x14 <= 1
 0 <= x15 <= 1
 0 <= x16 <= 1
Binaries
 x1  x2  x3  x4  x5  x6  x7  x8  x9  x10  x11  x12  x13  x14  x15  x16 
End
